MARKOV
230
 2 2 2 2 2 2 2 2 2 2 2 2 2 2 2 2 2 2 2 2 2 2 2 2 2 2 2 2 2 2 2 2 2 2 2 2 2 2 2 2 2 2 2 2 2 2 2 2 2 2 2 2 2 2 2 2 2 2 2 2 2 2 2 2 2 2 2 2 2 2 2 2 2 2 2 2 2 2 2 2 2 2 2 2 2 2 2 2 2 2 2 2 2 2 2 2 2 2 2 2 2 2 2 2 2 2 2 2 2 2 2 2 2 2 2 2 2 2 2 2 2 2 2 2 2 2 2 2 2 2 2 2 2 2 2 2 2 2 2 2 2 2 2 2 2 2 2 2 2 2 2 2 2 2 2 2 2 2 2 2 2 2 2 2 2 2 2 2 2 2 2 2 2 2 2 2 2 2 2 2 2 2 2 2 2 2 2 2 2 2 2 2 2 2 2 2 2 2 2 2 2 2 2 2 2 2 2 2 2 2 2 2 2 2 2 2 2 2 2 2 2 2 2 2 2 2 2 2 2 2
852
1	0 
1	1 
1	2 
1	3 
1	4 
1	5 
1	6 
1	7 
1	8 
1	9 
1	10 
1	11 
1	12 
1	13 
1	14 
1	15 
1	16 
1	17 
1	18 
1	19 
1	20 
1	21 
1	22 
1	23 
1	24 
1	25 
1	26 
1	27 
1	28 
1	29 
1	30 
1	31 
1	32 
1	33 
1	34 
1	35 
1	36 
1	37 
1	38 
1	39 
1	40 
1	41 
1	42 
1	43 
1	44 
1	45 
1	46 
1	47 
1	48 
1	49 
1	50 
1	51 
1	52 
1	53 
1	54 
1	55 
1	56 
1	57 
1	58 
1	59 
1	60 
1	61 
1	62 
1	63 
1	64 
1	65 
1	66 
1	67 
1	68 
1	69 
1	70 
1	71 
1	72 
1	73 
1	74 
1	75 
1	76 
1	77 
1	78 
1	79 
1	80 
1	81 
1	82 
1	83 
1	84 
1	85 
1	86 
1	87 
1	88 
1	89 
1	90 
1	91 
1	92 
1	93 
1	94 
1	95 
1	96 
1	97 
1	98 
1	99 
1	100 
1	101 
1	102 
1	103 
1	104 
1	105 
1	106 
1	107 
1	108 
1	109 
1	110 
1	111 
1	112 
1	113 
1	114 
1	115 
1	116 
1	117 
1	118 
1	119 
1	120 
1	121 
1	122 
1	123 
1	124 
1	125 
1	126 
1	127 
1	128 
1	129 
1	130 
1	131 
1	132 
1	133 
1	134 
1	135 
1	136 
1	137 
1	138 
1	139 
1	140 
1	141 
1	142 
1	143 
1	144 
1	145 
1	146 
1	147 
1	148 
1	149 
1	150 
1	151 
1	152 
1	153 
1	154 
1	155 
1	156 
1	157 
1	158 
1	159 
1	160 
1	161 
1	162 
1	163 
1	164 
1	165 
1	166 
1	167 
1	168 
1	169 
1	170 
1	171 
1	172 
1	173 
1	174 
1	175 
1	176 
1	177 
1	178 
1	179 
1	180 
1	181 
1	182 
1	183 
1	184 
1	185 
1	186 
1	187 
1	188 
1	189 
1	190 
1	191 
1	192 
1	193 
1	194 
1	195 
1	196 
1	197 
1	198 
1	199 
1	200 
1	201 
1	202 
1	203 
1	204 
1	205 
1	206 
1	207 
1	208 
1	209 
1	210 
1	211 
1	212 
1	213 
1	214 
1	215 
1	216 
1	217 
1	218 
1	219 
1	220 
1	221 
1	222 
1	223 
1	224 
1	225 
1	226 
1	227 
1	228 
1	229 
2	1 4 
2	1 5 
2	1 17 
2	1 18 
2	2 3 
2	2 4 
2	2 222 
2	3 4 
2	3 5 
2	3 118 
2	3 128 
2	3 215 
2	3 222 
2	3 225 
2	4 5 
2	5 18 
2	5 118 
2	5 119 
2	6 8 
2	6 13 
2	6 22 
2	6 25 
2	7 8 
2	7 9 
2	7 10 
2	7 12 
2	7 23 
2	8 12 
2	8 13 
2	8 14 
2	8 22 
2	8 23 
2	9 10 
2	9 173 
2	9 174 
2	9 175 
2	10 23 
2	10 174 
2	10 209 
2	11 12 
2	11 14 
2	11 15 
2	12 14 
2	12 77 
2	12 175 
2	13 14 
2	13 15 
2	14 15 
2	16 19 
2	16 21 
2	17 18 
2	17 20 
2	17 21 
2	18 20 
2	18 119 
2	18 153 
2	18 154 
2	19 20 
2	19 21 
2	19 154 
2	19 155 
2	20 21 
2	20 154 
2	22 23 
2	22 24 
2	22 25 
2	22 26 
2	22 27 
2	23 26 
2	23 209 
2	24 25 
2	24 27 
2	24 80 
2	24 81 
2	26 27 
2	26 207 
2	26 208 
2	26 209 
2	27 81 
2	27 208 
2	28 29 
2	28 30 
2	28 111 
2	28 132 
2	28 134 
2	28 139 
2	28 198 
2	29 30 
2	29 38 
2	29 40 
2	29 139 
2	29 140 
2	30 40 
2	30 134 
2	30 135 
2	31 33 
2	31 115 
2	31 124 
2	31 171 
2	31 172 
2	32 33 
2	32 45 
2	32 123 
2	32 124 
2	33 124 
2	34 35 
2	34 37 
2	34 127 
2	34 131 
2	34 229 
2	35 36 
2	35 37 
2	35 108 
2	35 109 
2	35 227 
2	35 229 
2	36 108 
2	36 136 
2	36 206 
2	36 227 
2	37 41 
2	37 109 
2	37 130 
2	37 131 
2	38 39 
2	38 40 
2	38 67 
2	38 140 
2	38 162 
2	38 163 
2	39 40 
2	39 41 
2	39 108 
2	39 109 
2	39 162 
2	40 41 
2	40 135 
2	41 109 
2	41 130 
2	41 135 
2	42 43 
2	42 44 
2	42 111 
2	42 132 
2	42 143 
2	42 192 
2	43 44 
2	43 70 
2	43 157 
2	43 192 
2	44 70 
2	44 71 
2	44 143 
2	44 145 
2	45 47 
2	45 123 
2	46 47 
2	46 113 
2	46 114 
2	47 114 
2	47 121 
2	47 123 
2	48 49 
2	48 50 
2	48 52 
2	48 53 
2	48 54 
2	48 57 
2	49 50 
2	49 56 
2	50 51 
2	50 52 
2	51 52 
2	51 218 
2	52 53 
2	52 218 
2	52 219 
2	53 54 
2	53 127 
2	53 219 
2	53 226 
2	53 229 
2	54 57 
2	54 226 
2	54 228 
2	55 56 
2	55 57 
2	55 88 
2	55 90 
2	56 57 
2	57 90 
2	57 201 
2	57 228 
2	58 60 
2	58 61 
2	58 196 
2	58 197 
2	59 60 
2	59 61 
2	59 66 
2	59 67 
2	59 141 
2	59 195 
2	60 61 
2	60 195 
2	60 197 
2	61 63 
2	61 66 
2	62 65 
2	62 66 
2	62 67 
2	62 85 
2	62 86 
2	62 165 
2	63 64 
2	63 65 
2	63 66 
2	64 65 
2	64 84 
2	65 66 
2	65 84 
2	65 85 
2	66 67 
2	67 140 
2	67 141 
2	67 163 
2	67 165 
2	68 69 
2	68 71 
2	68 142 
2	68 148 
2	68 149 
2	68 217 
2	69 70 
2	69 71 
2	69 102 
2	69 149 
2	70 71 
2	70 102 
2	70 106 
2	70 157 
2	71 142 
2	71 145 
2	72 73 
2	72 74 
2	72 75 
2	72 76 
2	72 158 
2	72 159 
2	72 161 
2	73 74 
2	73 76 
2	74 158 
2	74 191 
2	75 76 
2	75 104 
2	75 159 
2	77 116 
2	77 173 
2	77 175 
2	78 79 
2	78 81 
2	78 82 
2	78 83 
2	78 211 
2	79 82 
2	79 83 
2	79 85 
2	79 87 
2	80 81 
2	80 83 
2	81 83 
2	81 208 
2	81 211 
2	82 85 
2	82 86 
2	82 211 
2	82 212 
2	82 213 
2	83 87 
2	84 85 
2	84 87 
2	85 86 
2	85 87 
2	86 165 
2	86 166 
2	86 212 
2	88 89 
2	88 90 
2	88 95 
2	89 90 
2	89 91 
2	89 94 
2	89 95 
2	90 91 
2	90 201 
2	91 94 
2	91 100 
2	91 201 
2	91 202 
2	92 93 
2	92 94 
2	92 97 
2	92 121 
2	92 125 
2	93 94 
2	93 95 
2	93 96 
2	93 114 
2	93 121 
2	94 95 
2	94 97 
2	94 100 
2	95 96 
2	96 112 
2	96 114 
2	97 98 
2	97 99 
2	97 100 
2	97 125 
2	98 99 
2	98 122 
2	98 125 
2	98 169 
2	98 170 
2	99 100 
2	99 169 
2	99 199 
2	99 200 
2	100 200 
2	100 202 
2	101 102 
2	101 103 
2	101 106 
2	101 107 
2	102 103 
2	102 106 
2	102 149 
2	103 149 
2	103 150 
2	104 105 
2	104 107 
2	104 159 
2	105 106 
2	105 107 
2	105 157 
2	105 159 
2	105 160 
2	106 107 
2	106 157 
2	108 109 
2	108 136 
2	108 162 
2	108 167 
2	110 111 
2	110 190 
2	110 192 
2	110 194 
2	110 195 
2	110 197 
2	110 198 
2	111 132 
2	111 192 
2	111 198 
2	112 113 
2	112 114 
2	113 114 
2	114 121 
2	115 116 
2	115 171 
2	116 171 
2	116 173 
2	117 119 
2	117 120 
2	117 148 
2	117 153 
2	117 217 
2	118 119 
2	118 120 
2	118 215 
2	119 120 
2	119 153 
2	120 214 
2	120 215 
2	120 217 
2	121 123 
2	121 125 
2	122 123 
2	122 124 
2	122 125 
2	122 170 
2	123 124 
2	123 125 
2	124 170 
2	124 172 
2	126 128 
2	126 129 
2	126 131 
2	126 133 
2	126 147 
2	126 216 
2	127 129 
2	127 131 
2	127 219 
2	127 229 
2	128 129 
2	128 215 
2	128 216 
2	128 220 
2	128 225 
2	129 131 
2	129 219 
2	129 220 
2	130 131 
2	130 133 
2	130 135 
2	131 133 
2	132 134 
2	132 143 
2	133 134 
2	133 135 
2	133 146 
2	133 147 
2	134 135 
2	134 143 
2	134 146 
2	136 138 
2	136 167 
2	136 180 
2	136 182 
2	136 203 
2	136 206 
2	137 138 
2	137 168 
2	137 169 
2	137 184 
2	137 186 
2	137 199 
2	137 205 
2	138 180 
2	138 184 
2	138 188 
2	138 203 
2	138 205 
2	139 140 
2	139 141 
2	139 198 
2	140 141 
2	141 195 
2	141 198 
2	142 144 
2	142 145 
2	142 214 
2	142 217 
2	143 145 
2	143 146 
2	144 145 
2	144 146 
2	144 147 
2	144 214 
2	144 216 
2	145 146 
2	146 147 
2	147 216 
2	148 149 
2	148 151 
2	148 153 
2	148 217 
2	149 150 
2	149 151 
2	149 152 
2	150 152 
2	151 152 
2	151 153 
2	151 156 
2	152 156 
2	153 154 
2	153 156 
2	154 155 
2	154 156 
2	155 156 
2	157 160 
2	157 192 
2	158 161 
2	158 189 
2	158 191 
2	159 160 
2	159 161 
2	160 161 
2	160 190 
2	160 192 
2	161 189 
2	161 190 
2	162 163 
2	162 164 
2	162 166 
2	162 167 
2	163 165 
2	163 166 
2	164 166 
2	164 167 
2	164 181 
2	164 182 
2	165 166 
2	166 181 
2	166 183 
2	166 212 
2	167 182 
2	168 169 
2	168 170 
2	168 176 
2	168 178 
2	168 186 
2	169 170 
2	169 199 
2	170 172 
2	170 176 
2	171 172 
2	171 173 
2	171 176 
2	172 176 
2	173 174 
2	173 175 
2	173 176 
2	174 176 
2	174 178 
2	174 209 
2	176 178 
2	177 179 
2	177 183 
2	177 187 
2	177 210 
2	177 211 
2	177 213 
2	178 179 
2	178 185 
2	178 186 
2	178 209 
2	179 185 
2	179 187 
2	179 207 
2	179 209 
2	179 210 
2	180 181 
2	180 182 
2	180 188 
2	181 182 
2	181 183 
2	181 187 
2	183 187 
2	183 212 
2	183 213 
2	184 185 
2	184 186 
2	184 188 
2	185 186 
2	185 187 
2	185 188 
2	187 188 
2	189 190 
2	189 191 
2	189 193 
2	189 194 
2	190 192 
2	190 194 
2	191 193 
2	193 194 
2	193 196 
2	194 196 
2	194 197 
2	195 197 
2	195 198 
2	196 197 
2	199 200 
2	199 205 
2	200 202 
2	200 205 
2	201 202 
2	201 204 
2	201 228 
2	202 204 
2	202 205 
2	203 204 
2	203 205 
2	203 206 
2	204 205 
2	204 206 
2	204 228 
2	206 227 
2	206 228 
2	207 208 
2	207 209 
2	207 210 
2	208 210 
2	208 211 
2	210 211 
2	211 213 
2	212 213 
2	214 215 
2	214 216 
2	214 217 
2	215 216 
2	218 219 
2	218 221 
2	219 220 
2	219 221 
2	219 224 
2	220 224 
2	220 225 
2	221 223 
2	221 224 
2	222 223 
2	222 224 
2	222 225 
2	223 224 
2	224 225 
2	226 227 
2	226 228 
2	226 229 
2	227 228 
2	227 229 
0	

2
 0.252912 1
2
 1 0.0388099
2
 1 0.0597297
2
 1 0.0947494
2
 1 0.0492912
2
 1 0.0902824
2
 1 0.264843
2
 1 0.101844
2
 1 0.132454
2
 1 0.967614
2
 1 0.658573
2
 1 0.0367806
2
 1 0.0629654
2
 1 0.0908865
2
 1 0.0346548
2
 1 0.0751959
2
 1 0.0278689
2
 1 0.0232349
2
 1 0.0608031
2
 1 0.0408308
2
 1 0.0679654
2
 1 0.0214384
2
 1 0.0202075
2
 1 0.0450405
2
 1 0.017334
2
 1 0.0115596
2
 1 0.0266163
2
 1 0.025794
2
 0.398564 1
2
 0.710167 1
2
 0.513129 1
2
 1 0.219757
2
 1 0.0651495
2
 1 0.0268088
2
 0.305903 1
2
 0.742676 1
2
 0.267337 1
2
 0.683087 1
2
 0.227711 1
2
 0.629576 1
2
 0.261826 1
2
 0.244626 1
2
 0.384505 1
2
 1 0.499142
2
 1 0.900102
2
 1 0.0307948
2
 1 0.0183569
2
 1 0.0229595
2
 1 0.0830113
2
 1 0.0447589
2
 1 0.0449945
2
 1 0.0268978
2
 1 0.0769701
2
 1 0.0995352
2
 1 0.271197
2
 1 0.0143132
2
 1 0.0258591
2
 1 0.068942
2
 1 0.32975
2
 1 0.388406
2
 1 0.70896
2
 1 0.0739719
2
 1 0.160706
2
 1 0.076303
2
 1 0.101765
2
 1 0.0794661
2
 1 0.13809
2
 1 0.255008
2
 1 0.199067
2
 1 0.133239
2
 1 0.239711
2
 1 0.374913
2
 1 0.0469135
2
 1 0.0539025
2
 1 0.0648516
2
 1 0.056794
2
 1 0.0601355
2
 1 0.138913
2
 1 0.0580326
2
 1 0.060896
2
 1 0.0297313
2
 1 0.0471329
2
 1 0.100935
2
 1 0.0375003
2
 1 0.0674144
2
 1 0.161953
2
 1 0.238669
2
 1 0.0657676
2
 1 0.0232378
2
 1 0.0210497
2
 1 0.0319418
2
 1 0.0492891
2
 1 0.0517002
2
 1 0.035537
2
 1 0.0297459
2
 1 0.0132369
2
 1 0.0140128
2
 1 0.0407554
2
 1 0.063235
2
 1 0.204713
2
 1 0.0495452
2
 1 0.041695
2
 1 0.0546791
2
 1 0.131276
2
 1 0.0961204
2
 1 0.0561768
2
 1 0.0909457
2
 1 0.0500411
2
 1 0.956104
2
 0.577468 1
2
 1 0.217063
2
 0.501302 1
2
 1 0.0147503
2
 1 0.0273393
2
 1 0.0506494
2
 1 0.169476
2
 1 0.121017
2
 1 0.105901
2
 1 0.0920835
2
 1 0.0878248
2
 1 0.114803
2
 1 0.0470955
2
 1 0.0957401
2
 1 0.0505892
2
 1 0.344011
2
 1 0.075138
2
 1 0.178132
2
 1 0.15454
2
 1 0.119986
2
 1 0.14113
2
 0.368358 1
2
 1 0.573156
2
 0.609393 1
2
 1 0.520916
2
 0.880162 1
2
 1 0.896325
2
 0.0359147 1
2
 0.238059 1
2
 0.297224 1
2
 0.222568 1
2
 0.280129 1
2
 0.249795 1
2
 1 0.115548
2
 0.488183 1
2
 1 0.221167
2
 0.686499 1
2
 1 0.663237
2
 1 0.11207
2
 1 0.0532533
2
 1 0.0517381
2
 1 0.0915502
2
 1 0.0823702
2
 1 0.0739293
2
 1 0.0804805
2
 1 0.0704856
2
 1 0.0883507
2
 1 0.148035
2
 1 0.137387
2
 1 0.0630927
2
 1 0.0709275
2
 1 0.0957573
2
 1 0.0693305
2
 1 0.569257
2
 1 0.579114
2
 1 0.225397
2
 1 0.141292
2
 1 0.124251
2
 1 0.661791
2
 0.502349 1
2
 0.25114 1
2
 0.249763 1
2
 1 0.343612
2
 0.980255 1
2
 1 0.446456
2
 1 0.784897
2
 0.479406 1
2
 0.80592 1
2
 1 0.089354
2
 1 0.169521
2
 1 0.0629572
2
 1 0.273029
2
 1 0.0871743
2
 1 0.455031
2
 1 0.0989553
2
 1 0.0596018
2
 1 0.0483812
2
 1 0.101041
2
 1 0.0440729
2
 1 0.105075
2
 1 0.18313
2
 1 0.184821
2
 1 0.0909921
2
 1 0.942338
2
 1 0.196041
2
 1 0.417638
2
 0.0543769 1
2
 1 0.572108
2
 0.191094 1
2
 0.101652 1
2
 1 0.0540119
2
 1 0.0614337
2
 1 0.0563631
2
 1 0.0529712
2
 1 0.105645
2
 1 0.121157
2
 1 0.0857923
2
 1 0.335833
2
 1 0.0471545
2
 1 0.0583038
2
 1 0.0402653
2
 1 0.0432224
2
 1 0.054601
2
 1 0.304257
2
 1 0.0640981
2
 1 0.153653
2
 1 0.215953
2
 1 0.239348
2
 1 0.167549
2
 1 0.0494073
2
 1 0.104449
2
 1 0.115753
2
 1 0.0301825
2
 1 0.0689699
2
 1 0.0738982
2
 1 0.123386
2
 1 0.0581024
2
 1 0.150427
2
 1 0.203406
2
 1 0.146052
2
 1 0.300924
4
 0.940805 0.237896 0.237896 1
4
 0.940396 0.239687 0.239687 1
4
 0.934942 0.234323 0.234323 1
4
 0.936459 0.237226 0.237226 1
4
 0.949659 0.245373 0.245373 1
4
 0.946272 0.241145 0.241145 1
4
 0.951494 0.244394 0.244394 1
4
 0.947081 0.243939 0.243939 1
4
 0.946668 0.245775 0.245775 1
4
 0.949622 0.249691 0.249691 1
4
 0.955203 0.25352 0.25352 1
4
 0.952931 0.252743 0.252743 1
4
 0.952308 0.247226 0.247226 1
4
 0.953834 0.250528 0.250528 1
4
 0.943292 0.241539 0.241539 1
4
 0.938933 0.240858 0.240858 1
4
 0.945823 0.247235 0.247235 1
4
 0.941625 0.244184 0.244184 1
4
 1 0.352385 0.352385 0.951846
4
 1 0.357984 0.357984 0.948486
4
 1 0.351182 0.351182 0.955347
4
 1 0.354867 0.354867 0.953979
4
 1 0.345536 0.345536 0.953688
4
 1 0.339029 0.339029 0.955452
4
 1 0.337427 0.337427 0.958117
4
 1 0.344472 0.344472 0.950897
4
 1 0.341208 0.341208 0.957673
4
 1 0.347873 0.347873 0.949615
4
 1 0.354493 0.354493 0.949039
4
 1 0.351555 0.351555 0.949255
4
 1 0.347757 0.347757 0.955905
4
 1 0.344577 0.344577 0.956382
4
 1 0.334341 0.334341 0.958595
4
 1 0.33319 0.33319 0.955691
4
 1 0.330915 0.330915 0.959513
4
 1 0.337147 0.337147 0.953707
4
 1 0.33649 0.33649 0.960824
4
 1 0.329351 0.329351 0.962189
4
 1 0.331393 0.331393 0.963868
4
 1 0.350714 0.350714 0.944226
4
 1 0.354425 0.354425 0.943869
4
 1 0.358562 0.358562 0.940643
4
 1 0.350472 0.350472 0.946477
4
 1 0.343803 0.343803 0.946954
4
 1 0.34256 0.34256 0.94916
4
 1 0.357141 0.357141 0.945904
4
 1 0.36131 0.36131 0.942671
4
 1 0.358316 0.358316 0.942886
4
 0.92089 0.227412 0.227412 1
4
 0.922463 0.22684 0.22684 1
4
 0.933488 0.235468 0.235468 1
4
 0.930701 0.233826 0.233826 1
4
 0.928847 0.230763 0.230763 1
4
 0.93221 0.236722 0.236722 1
4
 0.937682 0.241677 0.241677 1
4
 0.934955 0.241482 0.241482 1
4
 0.932693 0.238797 0.238797 1
4
 0.925994 0.232576 0.232576 1
4
 0.924149 0.22953 0.22953 1
4
 0.926473 0.234615 0.234615 1
4
 0.923301 0.232389 0.232389 1
4
 0.927576 0.231992 0.231992 1
4
 0.929908 0.237131 0.237131 1
4
 1 0.3434 0.3434 0.9599
4
 1 0.348631 0.348631 0.961275
4
 1 0.350207 0.350207 0.958047
4
 1 0.342159 0.342159 0.962136
4
 1 0.344837 0.344837 0.963014
4
 1 0.33903 0.33903 0.962616
4
 1 0.335106 0.335106 0.963422
4
 1 0.352289 0.352289 0.959898
4
 1 0.346888 0.346888 0.964874
4
 1 0.349253 0.349253 0.966477
4
 1 0.345751 0.345751 0.967962
4
 1 0.340449 0.340449 0.965739
4
 1 0.334158 0.334158 0.967625
4
 1 0.336613 0.336613 0.968128
4
 1 0.333894 0.333894 0.965666
4
 1 0.341989 0.341989 0.969713
4
 1 0.339248 0.339248 0.969011
4
 0.976645 0.295042 0.295042 1
4
 0.975393 0.292247 0.292247 1
4
 0.971407 0.293695 0.293695 1
4
 0.971156 0.290155 0.290155 1
4
 0.972024 0.288441 0.288441 1
4
 0.976786 0.297367 0.297367 1
4
 0.97438 0.296249 0.296249 1
4
 0.978332 0.294018 0.294018 1
4
 0.983256 0.299438 0.299438 1
4
 0.980664 0.294922 0.294922 1
4
 0.979728 0.299169 0.299169 1
4
 0.982579 0.30106 0.30106 1
4
 0.979407 0.292128 0.292128 1
4
 0.973703 0.28744 0.28744 1
4
 0.975778 0.28772 0.28772 1
4
 1 0.316962 0.316962 0.956999
4
 1 0.3229 0.3229 0.954127
4
 1 0.314726 0.314726 0.96027
4
 1 0.321571 0.321571 0.956707
4
 1 0.317985 0.317985 0.959351
4
 1 0.311672 0.311672 0.95936
4
 1 0.306059 0.306059 0.96161
4
 1 0.304987 0.304987 0.964129
4
 1 0.309473 0.309473 0.962638
4
 1 0.312301 0.312301 0.961143
4
 0.983229 0.281947 0.281947 1
4
 0.98001 0.279931 0.279931 1
4
 0.976803 0.273647 0.273647 1
4
 0.975531 0.275561 0.275561 1
4
 0.980591 0.276969 0.276969 1
4
 0.991352 0.290324 0.290324 1
4
 0.984308 0.284518 0.284518 1
4
 0.989559 0.291132 0.291132 1
4
 0.986843 0.288396 0.288396 1
4
 0.989127 0.285921 0.285921 1
4
 0.984891 0.281508 0.281508 1
4
 0.993378 0.294948 0.294948 1
4
 0.998458 0.297595 0.297595 1
4
 0.996319 0.293006 0.293006 1
4
 0.992944 0.28967 0.28967 1
4
 0.981107 0.285058 0.285058 1
4
 0.983612 0.286334 0.286334 1
4
 0.978202 0.281249 0.281249 1
4
 0.976601 0.278074 0.278074 1
4
 0.987284 0.299603 0.299603 1
4
 0.984337 0.297513 0.297513 1
4
 0.989104 0.307604 0.307604 1
4
 0.986259 0.303706 0.303706 1
4
 0.990706 0.303556 0.303556 1
4
 0.990191 0.305627 0.305627 1
4
 0.984682 0.295085 0.295085 1
4
 0.984375 0.292368 0.292368 1
4
 0.989605 0.296462 0.296462 1
4
 0.986888 0.293677 0.293677 1
4
 0.991054 0.301078 0.301078 1
4
 0.981436 0.290329 0.290329 1
4
 0.978104 0.288605 0.288605 1
4
 0.983635 0.288944 0.288944 1
4
 0.978225 0.283812 0.283812 1
4
 0.977799 0.285948 0.285948 1
4
 0.960976 0.284222 0.284222 1
4
 0.960514 0.281213 0.281213 1
4
 0.966273 0.289639 0.289639 1
4
 0.966024 0.286148 0.286148 1
4
 0.963524 0.282571 0.282571 1
4
 0.962633 0.287668 0.287668 1
4
 0.95805 0.280228 0.280228 1
4
 0.954878 0.278759 0.278759 1
4
 0.955275 0.281275 0.281275 1
4
 0.960164 0.286661 0.286661 1
4
 0.954419 0.275807 0.275807 1
4
 0.953845 0.27322 0.27322 1
4
 0.960591 0.2786 0.2786 1
4
 0.956495 0.274037 0.274037 1
4
 1 0.299442 0.299442 0.964353
4
 1 0.302232 0.302232 0.96489
4
 1 0.292535 0.292535 0.967448
4
 1 0.286803 0.286803 0.970525
4
 1 0.288267 0.288267 0.971919
4
 1 0.291325 0.291325 0.970808
4
 1 0.294054 0.294054 0.969861
4
 1 0.298393 0.298393 0.96688
4
 0.983783 0.266779 0.266779 1
4
 0.980946 0.264849 0.264849 1
4
 0.980253 0.266539 0.266539 1
4
 0.981577 0.269534 0.269534 1
4
 0.986007 0.272118 0.272118 1
4
 0.988579 0.272551 0.272551 1
4
 0.980841 0.262274 0.262274 1
4
 0.986052 0.265946 0.265946 1
4
 0.975093 0.25856 0.25856 1
4
 0.977322 0.262038 0.262038 1
4
 0.974404 0.260211 0.260211 1
4
 0.970858 0.25671 0.25671 1
4
 0.977951 0.266674 0.266674 1
4
 0.973077 0.260163 0.260163 1
4
 0.973545 0.262947 0.262947 1
4
 0.983691 0.272256 0.272256 1
4
 0.97697 0.269808 0.269808 1
4
 0.97486 0.265902 0.265902 1
4
 0.983364 0.274234 0.274234 1
4
 0.980758 0.273083 0.273083 1
4
 0.990708 0.275303 0.275303 1
4
 0.987802 0.276862 0.276862 1
4
 0.990509 0.278223 0.278223 1
4
 0.990586 0.268683 0.268683 1
4
 0.993018 0.272678 0.272678 1
4
 0.996108 0.271521 0.271521 1
4
 0.996298 0.274378 0.274378 1
4
 0.990859 0.2717 0.2717 1
4
 0.996573 0.27746 0.27746 1
4
 0.996224 0.279743 0.279743 1
4
 0.993093 0.278666 0.278666 1
4
 0.984166 0.319322 0.319322 1
4
 0.987005 0.323421 0.323421 1
4
 0.980571 0.318507 0.318507 1
4
 0.980631 0.315851 0.315851 1
4
 0.986342 0.316664 0.316664 1
4
 0.989187 0.320729 0.320729 1
4
 0.991033 0.31892 0.31892 1
4
 0.989465 0.314414 0.314414 1
4
 0.985387 0.311702 0.311702 1
4
 0.983108 0.311262 0.311262 1
4
 0.987869 0.321819 0.321819 1
4
 0.981798 0.31232 0.31232 1
4
 0.981489 0.314287 0.314287 1
4
 0.994058 0.328527 0.328527 1
4
 0.992568 0.324112 0.324112 1
4
 1 0.325863 0.325863 0.999663
4
 0.996659 0.322204 0.322204 1
4
 0.995082 0.317652 0.317652 1
4
 1 0.326578 0.326578 0.996168
4
 1 0.323385 0.323385 0.997513
4
 0.99905 0.319662 0.319662 1
4
 1 0.333979 0.333979 0.998878
4
 0.999587 0.330495 0.330495 1
4
 0.995912 0.326674 0.326674 1
4
 1 0.332617 0.332617 0.996699
4
 1 0.336546 0.336546 0.99282
4
 0.998089 0.326053 0.326053 1
4
 1 0.333172 0.333172 0.994346
4
 1 0.330005 0.330005 0.994741
4
 0.992846 0.31773 0.31773 1
4
 0.988423 0.309271 0.309271 1
4
 0.98719 0.310539 0.310539 1
4
 0.992364 0.311228 0.311228 1
4
 0.995227 0.315223 0.315223 1
4
 0.944869 0.262068 0.262068 1
4
 0.947903 0.26497 0.26497 1
4
 0.948448 0.262418 0.262418 1
4
 0.94293 0.256791 0.256791 1
4
 0.941833 0.258024 0.258024 1
4
 0.946187 0.259002 0.259002 1
4
 0.947644 0.26881 0.26881 1
4
 0.947074 0.266289 0.266289 1
4
 0.942642 0.263645 0.263645 1
4
 0.941009 0.259309 0.259309 1
4
 0.950688 0.271787 0.271787 1
4
 0.946239 0.269089 0.269089 1
4
 0.948288 0.273042 0.273042 1
4
 0.951654 0.276838 0.276838 1
4
 0.950662 0.266645 0.266645 1
4
 0.952755 0.270043 0.270043 1
4
 0.953115 0.296384 0.296384 1
4
 0.957042 0.29925 0.29925 1
4
 0.950787 0.290441 0.290441 1
4
 0.951021 0.292654 0.292654 1
4
 0.958284 0.298809 0.298809 1
4
 0.952991 0.290852 0.290852 1
4
 0.956294 0.294689 0.294689 1
4
 0.955928 0.300687 0.300687 1
4
 0.949914 0.294059 0.294059 1
4
 0.961112 0.303148 0.303148 1
4
 0.963739 0.306317 0.306317 1
4
 0.947594 0.288163 0.288163 1
4
 0.945377 0.282312 0.282312 1
4
 0.949557 0.286388 0.286388 1
4
 1 0.336754 0.336754 0.948494
4
 1 0.335612 0.335612 0.951254
4
 1 0.339598 0.339598 0.949279
4
 1 0.336801 0.336801 0.980831
4
 1 0.338302 0.338302 0.975759
4
 1 0.333061 0.333061 0.982036
4
 1 0.34002 0.34002 0.977909
4
 1 0.333549 0.333549 0.978402
4
 1 0.334098 0.334098 0.984165
4
 1 0.341079 0.341079 0.980029
4
 1 0.334271 0.334271 0.987101
4
 1 0.339204 0.339204 0.984066
4
 1 0.34432 0.34432 0.971323
4
 1 0.346069 0.346069 0.973464
4
 1 0.342599 0.342599 0.974961
4
 1 0.338136 0.338136 0.972112
4
 1 0.336079 0.336079 0.975452
4
 1 0.330559 0.330559 0.988314
4
 1 0.327327 0.327327 0.989648
4
 1 0.330873 0.330873 0.981728
4
 1 0.326384 0.326384 0.98808
4
 1 0.328098 0.328098 0.984964
4
 1 0.342446 0.342446 0.981135
4
 1 0.333903 0.333903 0.990869
4
 1 0.338831 0.338831 0.987823
4
 1 0.327495 0.327495 0.992601
4
 1 0.33561 0.33561 0.988215
4
 1 0.320865 0.320865 0.997367
4
 1 0.319825 0.319825 0.995684
4
 1 0.32336 0.32336 0.992365
4
 1 0.276531 0.276531 0.997658
4
 0.999674 0.276282 0.276282 1
4
 1 0.275535 0.275535 0.995873
4
 1 0.279388 0.279388 0.997467
4
 1 0.282341 0.282341 0.993753
4
 1 0.282125 0.282125 0.990982
4
 1 0.278541 0.278541 0.993026
4
 1 0.282179 0.282179 0.996411
4
 0.999514 0.281488 0.281488 1
4
 1 0.284943 0.284943 0.989933
4
 1 0.287919 0.287919 0.99003
4
 1 0.284601 0.284601 0.99676
4
 1 0.287217 0.287217 0.993689
4
 1 0.286841 0.286841 0.98137
4
 1 0.2871 0.2871 0.983645
4
 1 0.291629 0.291629 0.979888
4
 1 0.290982 0.290982 0.976755
4
 1 0.293488 0.293488 0.97635
4
 1 0.284467 0.284467 0.98489
4
 1 0.280854 0.280854 0.986921
4
 1 0.281848 0.281848 0.983589
4
 1 0.285638 0.285638 0.978946
4
 1 0.288314 0.288314 0.977992
4
 1 0.281108 0.281108 0.989209
4
 1 0.289216 0.289216 0.983403
4
 1 0.287698 0.287698 0.987269
4
 1 0.27852 0.27852 0.987902
4
 1 0.280699 0.280699 0.981443
4
 1 0.283264 0.283264 0.979919
4
 1 0.297599 0.297599 0.977165
4
 1 0.295097 0.295097 0.981137
4
 1 0.292237 0.292237 0.983499
4
 1 0.295651 0.295651 0.97611
4
 1 0.298934 0.298934 0.978652
4
 1 0.303197 0.303197 0.971997
4
 1 0.299496 0.299496 0.973637
4
 1 0.303125 0.303125 0.975443
4
 1 0.306295 0.306295 0.971529
4
 1 0.293548 0.293548 0.984995
4
 1 0.300576 0.300576 0.979408
4
 1 0.29919 0.29919 0.982424
4
 1 0.295812 0.295812 0.985608
4
 1 0.292945 0.292945 0.987981
4
 1 0.289994 0.289994 0.991016
4
 0.939481 0.264215 0.264215 1
4
 0.936552 0.261503 0.261503 1
4
 0.941515 0.268096 0.268096 1
4
 0.939145 0.267857 0.267857 1
4
 0.938311 0.26121 0.26121 1
4
 0.943283 0.267795 0.267795 1
4
 0.939614 0.259577 0.259577 1
4
 0.936685 0.256914 0.256914 1
4
 0.933854 0.255612 0.255612 1
4
 0.944815 0.278131 0.278131 1
4
 0.941983 0.274941 0.274941 1
4
 0.947568 0.282711 0.282711 1
4
 0.94578 0.274637 0.274637 1
4
 0.943399 0.274393 0.274393 1
4
 0.949138 0.278455 0.278455 1
4
 0.948993 0.282147 0.282147 1
4
 0.950321 0.281658 0.281658 1
4
 0.942945 0.271487 0.271487 1
4
 0.948681 0.275507 0.275507 1
4
 0.988861 0.29299 0.29299 1
4
 0.996653 0.298423 0.298423 1
4
 0.993034 0.300374 0.300374 1
4
 0.994377 0.29907 0.29907 1
4
 0.970643 0.298342 0.298342 1
4
 0.968129 0.299222 0.299222 1
4
 0.966987 0.296311 0.296311 1
4
 0.971367 0.303541 0.303541 1
4
 0.975375 0.304796 0.304796 1
4
 0.975068 0.306716 0.306716 1
4
 0.973614 0.300935 0.300935 1
4
 0.968857 0.290581 0.290581 1
4
 0.965456 0.292124 0.292124 1
4
 0.972073 0.296684 0.296684 1
4
 1 0.283029 0.283029 0.975409
4
 1 0.284473 0.284473 0.976811
4
 1 0.285616 0.285616 0.973895
4
 1 0.289763 0.289763 0.974343
4
 1 0.329556 0.329556 0.951022
4
 1 0.325072 0.325072 0.954703
4
 1 0.3282 0.3282 0.953594
4
 1 0.331598 0.331598 0.952682
4
 0.941112 0.247442 0.247442 1
4
 0.944834 0.252002 0.252002 1
4
 0.941013 0.25138 0.25138 1
4
 0.938375 0.247243 0.247243 1
4
 0.944264 0.253544 0.253544 1
4
 0.944563 0.248075 0.248075 1
4
 0.948299 0.252647 0.252647 1
4
 0.95208 0.254245 0.254245 1
4
 0.944089 0.249529 0.249529 1
4
 0.937635 0.244817 0.244817 1
4
 0.950477 0.257209 0.257209 1
4
 0.951602 0.255735 0.255735 1
4
 0.947251 0.255682 0.255682 1
4
 1 0.296794 0.296794 0.970401
4
 1 0.294995 0.294995 0.972989
4
 1 0.303048 0.303048 0.968364
4
 1 0.307505 0.307505 0.966866
4
 1 0.301212 0.301212 0.970947
4
 1 0.30805 0.30805 0.968845
4
 1 0.305603 0.305603 0.965922
4
 1 0.299349 0.299349 0.969998
4
 1 0.310647 0.310647 0.966402
4
 1 0.313309 0.313309 0.963505
4
 0.962576 0.263087 0.263087 1
4
 0.966833 0.266886 0.266886 1
4
 0.968663 0.270499 0.270499 1
4
 0.967156 0.27182 0.27182 1
4
 0.964159 0.268773 0.268773 1
4
 0.96196 0.265205 0.265205 1
4
 0.971566 0.268202 0.268202 1
4
 0.973406 0.271832 0.271832 1
4
 0.97257 0.266037 0.266037 1
4
 0.978454 0.273221 0.273221 1
4
 0.964203 0.262677 0.262677 1
4
 0.957675 0.258144 0.258144 1
4
 0.959344 0.261023 0.261023 1
4
 0.961923 0.25901 0.25901 1
4
 0.958583 0.255882 0.255882 1
4
 0.9703 0.270077 0.270077 1
4
 0.969467 0.264319 0.264319 1
4
 0.966176 0.26275 0.26275 1
4
 0.973732 0.276858 0.276858 1
4
 0.972217 0.278211 0.278211 1
4
 0.974904 0.282127 0.282127 1
4
 0.970625 0.275071 0.275071 1
4
 0.969474 0.285383 0.285383 1
4
 0.966101 0.28349 0.28349 1
4
 0.969728 0.280032 0.280032 1
4
 0.971794 0.280305 0.280305 1
4
 0.965872 0.275494 0.275494 1
4
 0.966112 0.273316 0.273316 1
4
 0.972408 0.283973 0.283973 1
4
 0.966965 0.281815 0.281815 1
4
 0.966482 0.279099 0.279099 1
4
 1 0.302388 0.302388 0.993787
4
 0.999462 0.301753 0.301753 1
4
 1 0.304042 0.304042 0.995317
4
 1 0.303874 0.303874 0.997215
4
 1 0.298574 0.298574 0.996888
4
 0.999603 0.296457 0.296457 1
4
 1 0.306201 0.306201 0.984544
4
 1 0.310555 0.310555 0.975323
4
 1 0.306491 0.306491 0.977983
4
 1 0.310241 0.310241 0.98008
4
 1 0.311913 0.311913 0.976524
4
 1 0.305078 0.305078 0.980994
4
 1 0.303553 0.303553 0.984667
4
 1 0.305876 0.305876 0.990863
4
 1 0.308226 0.308226 0.984854
4
 1 0.307216 0.307216 0.988006
4
 1 0.300375 0.300375 0.992426
4
 1 0.301581 0.301581 0.989463
4
 0.982721 0.303433 0.303433 1
4
 0.981494 0.304677 0.304677 1
4
 0.977456 0.300393 0.300393 1
4
 0.98435 0.306603 0.306603 1
4
 0.980848 0.307425 0.307425 1
4
 0.979077 0.303531 0.303531 1
4
 0.953913 0.265305 0.265305 1
4
 0.953302 0.267442 0.267442 1
4
 0.952173 0.262196 0.262196 1
4
 0.948941 0.260639 0.260639 1
4
 0.959492 0.275361 0.275361 1
4
 0.96312 0.277248 0.277248 1
4
 0.956013 0.268686 0.268686 1
4
 0.959628 0.270528 0.270528 1
4
 0.959866 0.268389 0.268389 1
4
 0.954881 0.263416 0.263416 1
4
 0.957677 0.264827 0.264827 1
4
 0.959013 0.272706 0.272706 1
4
 0.962879 0.272405 0.272405 1
4
 0.960921 0.266665 0.266665 1
4
 0.939079 0.254088 0.254088 1
4
 0.937558 0.250979 0.250979 1
4
 0.937537 0.248712 0.248712 1
4
 0.94342 0.255051 0.255051 1
4
 0.935151 0.254014 0.254014 1
4
 0.936467 0.252184 0.252184 1
4
 0.933812 0.251016 0.251016 1
4
 0.93099 0.249744 0.249744 1
4
 0.9323 0.247945 0.247945 1
4
 0.93493 0.246849 0.246849 1
4
 0.931486 0.24534 0.24534 1
4
 0.928845 0.244203 0.244203 1
4
 0.932646 0.241899 0.241899 1
4
 0.931465 0.243124 0.243124 1
4
 0.927204 0.23694 0.23694 1
4
 0.929211 0.240421 0.240421 1
4
 0.92603 0.23814 0.23814 1
4
 0.953237 0.28255 0.28255 1
4
 0.956922 0.284685 0.284685 1
4
 0.960361 0.298527 0.298527 1
4
 0.964067 0.302441 0.302441 1
4
 0.96499 0.305865 0.305865 1
4
 0.953091 0.286296 0.286296 1
4
 0.955057 0.290577 0.290577 1
4
 0.956394 0.290074 0.290074 1
4
 0.959247 0.290789 0.290789 1
4
 0.958116 0.287959 0.287959 1
4
 0.962065 0.298271 0.298271 1
4
 0.961226 0.295137 0.295137 1
4
 0.993971 0.307132 0.307132 1
4
 0.998091 0.308107 0.308107 1
4
 0.998524 0.310591 0.310591 1
4
 0.995833 0.303726 0.303726 1
4
 0.996321 0.313198 0.313198 1
4
 0.998005 0.31271 0.31271 1
4
 1 0.313032 0.313032 0.997863
4
 0.999441 0.306769 0.306769 1
4
 1 0.312224 0.312224 0.994571
4
 1 0.308932 0.308932 0.997235
4
 1 0.316445 0.316445 0.999117
4
 1 0.314605 0.314605 0.99414
4
 1 0.317445 0.317445 0.992309
4
 1 0.318904 0.318904 0.994106
4
 1 0.30523 0.30523 0.999497
4
 1 0.308831 0.308831 0.973542
4
 1 0.31206 0.31206 0.969636
4
 1 0.316694 0.316694 0.967675
4
 1 0.317716 0.317716 0.970054
4
 1 0.314294 0.314294 0.97209
4
 1 0.307977 0.307977 0.97228
4
 1 0.303384 0.303384 0.979203
4
 1 0.313864 0.313864 0.965477
4
 1 0.315817 0.315817 0.966421
4
 1 0.320124 0.320124 0.959931
4
 1 0.327087 0.327087 0.956369
4
 1 0.322117 0.322117 0.96087
4
 1 0.318524 0.318524 0.963525
4
 1 0.328217 0.328217 0.959275
4
 1 0.334399 0.334399 0.95347
4
 1 0.325452 0.325452 0.95995
4
 1 0.323229 0.323229 0.963789
4
 1 0.324273 0.324273 0.966157
4
 1 0.327996 0.327996 0.964791
4
 1 0.321541 0.321541 0.966838
4
 1 0.324514 0.324514 0.976871
4
 1 0.322149 0.322149 0.983685
4
 1 0.321229 0.321229 0.981374
4
 1 0.326816 0.326816 0.977562
4
 1 0.328081 0.328081 0.979131
4
 1 0.32533 0.32533 0.982359
4
 1 0.323385 0.323385 0.971396
4
 1 0.320572 0.320572 0.973007
4
 1 0.319105 0.319105 0.971248
4
 1 0.326283 0.326283 0.967843
4
 1 0.321373 0.321373 0.975198
4
 1 0.320911 0.320911 0.978072
4
 1 0.327357 0.327357 0.97199
4
 1 0.327098 0.327098 0.970023
4
 1 0.326492 0.326492 0.974272
4
 1 0.310655 0.310655 0.991624
4
 1 0.307379 0.307379 0.994281
4
 1 0.308896 0.308896 0.989527
4
 1 0.310484 0.310484 0.993515
4
 1 0.316625 0.316625 0.989035
4
 1 0.315722 0.315722 0.986712
4
 1 0.318571 0.318571 0.984894
4
 1 0.320953 0.320953 0.989001
4
 1 0.322638 0.322638 0.985882
4
 1 0.31542 0.31542 0.9786
4
 1 0.313976 0.313976 0.976831
4
 1 0.311269 0.311269 0.983526
4
 1 0.31712 0.31712 0.975049
4
 1 0.31812 0.31812 0.979694
4
 1 0.314386 0.314386 0.981732
4
 1 0.313934 0.313934 0.984625
4
 0.964935 0.299006 0.299006 1
4
 0.966702 0.305603 0.305603 1
4
 0.969253 0.307185 0.307185 1
4
 0.968162 0.303322 0.303322 1
4
 0.962956 0.292987 0.292987 1
4
 0.967317 0.300135 0.300135 1
4
 0.970181 0.310663 0.310663 1
4
 0.971646 0.308345 0.308345 1
4
 0.975288 0.31419 0.31419 1
4
 0.974191 0.310239 0.310239 1
4
 0.974251 0.307652 0.307652 1
4
 0.978271 0.308925 0.308925 1
4
 0.976812 0.303103 0.303103 1
4
 0.977904 0.313484 0.313484 1
4
 1 0.298576 0.298576 0.985402
4
 1 0.300475 0.300475 0.985896
4
 1 0.292231 0.292231 0.991633
4
 1 0.297083 0.297083 0.989091
4
 1 0.286653 0.286653 0.997754
4
 0.999831 0.286967 0.286967 1
4
 0.996024 0.282711 0.282711 1
4
 1 0.289654 0.289654 0.997088
4
 1 0.29409 0.29409 0.99213
4
 1 0.293285 0.293285 0.99751
4
 1 0.297777 0.297777 0.992551
4
 1 0.2946 0.2946 0.999028
4
 1 0.294463 0.294463 0.994532
4
 0.998979 0.291024 0.291024 1
4
 0.996689 0.285862 0.285862 1
4
 0.994083 0.288562 0.288562 1
4
 0.995175 0.286708 0.286708 1
4
 1 0.33298 0.33298 0.970903
4
 1 0.33029 0.33029 0.968434
4
 1 0.329679 0.329679 0.972677
4
 1 0.332101 0.332101 0.973182
4
 1 0.333386 0.333386 0.974745
4
 1 0.330081 0.330081 0.976526
4
 1 0.328579 0.328579 0.981318
4
 1 0.324122 0.324122 0.987668
4
 0.954267 0.258837 0.258837 1
4
 0.95593 0.261723 0.261723 1
4
 0.949904 0.258783 0.258783 1
4
 0.957062 0.260223 0.260223 1
4
 0.970002 0.259409 0.259409 1
4
 0.967498 0.254763 0.254763 1
4
 0.967174 0.260629 0.260629 1
4
 0.967964 0.257489 0.257489 1
4
 0.966231 0.257958 0.257958 1
4
 0.962951 0.256426 0.256426 1
4
 0.960545 0.255952 0.255952 1
4
 0.962159 0.250478 0.250478 1
4
 0.963737 0.253337 0.253337 1
4
 0.956503 0.247169 0.247169 1
4
 0.958072 0.24999 0.24999 1
4
 0.955677 0.249528 0.249528 1
4
 0.960437 0.250934 0.250934 1
4
 0.959608 0.25333 0.25333 1
4
 0.989093 0.282057 0.282057 1
4
 0.99018 0.280244 0.280244 1
4
 0.984857 0.277703 0.277703 1
4
 0.991804 0.283444 0.283444 1
4
 0.986472 0.280873 0.280873 1
1
 1

